0 17 40 3 44 32 50 25 55 18 24 49 16 51 0
0 12 58 72 39 31 10 38 65 11 59 14 53 7 26 0
0 75 68 2 62 73 1 43 42 64 41 56 23 63 33 6 0
0 30 74 28 61 69 36 71 60 70 20 37 5 29 45 4 0
0 67 34 52 27 15 57 13 54 19 35 8 46 0
